
Gurobi 11.0.3 (linux64) logging started Sun Nov 24 19:14:23 2024

Set parameter LogFile to value "/home/yihong/Coding/OR_SUC/SUC_results_bigM100000_thread4/case24_ieee_rts_theta0.1_epsilon0.05_gurobi_seed1300000_num_gen100_N_WDR100_load_scaling_factor1_proposed_T12quadra_cost.txt"
Set parameter TimeLimit to value 3600
Gurobi Optimizer version 11.0.3 build v11.0.3rc0 (linux64 - "Ubuntu 20.04.6 LTS")

CPU model: AMD EPYC 7532 32-Core Processor, instruction set [SSE2|AVX|AVX2]
Thread count: 64 physical cores, 128 logical processors, using up to 4 threads

Optimize a model with 28530 rows, 14981 columns and 657050 nonzeros
Model fingerprint: 0x002090ea
Model has 1200 quadratic constraints
Variable types: 13781 continuous, 1200 integer (1200 binary)
Coefficient statistics:
  Matrix range     [3e-04, 3e+03]
  QMatrix range    [2e-03, 8e-03]
  QLMatrix range   [1e-01, 6e+01]
  Objective range  [1e+00, 1e+00]
  Bounds range     [1e+00, 1e+00]
  RHS range        [1e+00, 9e+03]
Presolve removed 23471 rows and 6480 columns
Presolve time: 0.19s
Presolved: 5059 rows, 8501 columns, 28738 nonzeros
Presolved model has 1200 quadratic constraint(s)
Variable types: 7301 continuous, 1200 integer (1200 binary)

Root relaxation: objective 1.645906e+04, 3892 iterations, 0.08 seconds (0.12 work units)

    Nodes    |    Current Node    |     Objective Bounds      |     Work
 Expl Unexpl |  Obj  Depth IntInf | Incumbent    BestBd   Gap | It/Node Time

     0     0 16459.0594    0   12          - 16459.0594      -     -    0s
     0     0 153925.691    0  363          - 153925.691      -     -    0s
     0     0 153928.726    0  363          - 153928.726      -     -    0s
     0     0 294724.049    0  215          - 294724.049      -     -    0s
     0     0 295119.515    0  203          - 295119.515      -     -    0s
     0     0 295264.740    0  120          - 295264.740      -     -    0s
     0     0 295265.060    0  120          - 295265.060      -     -    0s
     0     0 295265.129    0  120          - 295265.129      -     -    0s
     0     2 295265.254    0  120          - 295265.254      -     -    1s
H  142   144                    295365.79565 295270.568  0.03%  19.5    2s
*  142   144              50    295365.79565 295270.568  0.03%  19.6    2s

Cutting planes:
  Gomory: 62
  Implied bound: 297
  MIR: 38
  Flow cover: 104
  RLT: 5

Explored 147 nodes (13541 simplex iterations) in 3.05 seconds (4.40 work units)
Thread count was 4 (of 128 available processors)

Solution count 2: 295366 295366 

Optimal solution found (tolerance 1.00e-03)
Warning: max constraint violation (2.3894e-07) exceeds tolerance
Best objective 2.953657956525e+05, best bound 2.952705675922e+05, gap 0.0322%
